p edge 535 534
e 1 275
e 1 416
e 1 312
e 2 511
e 2 533
e 3 397
e 3 400
e 4 242
e 4 490
e 4 342
e 5 115
e 6 152
e 6 110
e 7 51
e 7 489
e 7 361
e 8 326
e 8 73
e 9 310
e 9 307
e 10 460
e 10 438
e 10 115
e 11 26
e 12 227
e 12 118
e 13 282
e 14 251
e 15 229
e 16 383
e 16 96
e 17 143
e 18 105
e 19 90
e 20 278
e 20 115
e 21 532
e 21 390
e 22 323
e 22 236
e 23 433
e 24 33
e 25 229
e 25 198
e 26 423
e 26 151
e 26 48
e 27 31
e 28 36
e 28 131
e 28 404
e 28 86
e 29 340
e 29 119
e 30 498
e 30 399
e 31 96
e 32 224
e 33 172
e 33 331
e 33 339
e 34 239
e 35 518
e 37 153
e 37 379
e 38 204
e 39 430
e 40 392
e 40 272
e 40 112
e 41 253
e 41 374
e 41 367
e 42 226
e 43 494
e 43 316
e 44 460
e 45 93
e 45 471
e 46 488
e 46 261
e 46 447
e 47 117
e 47 234
e 48 251
e 49 94
e 49 113
e 50 285
e 52 101
e 52 420
e 52 529
e 52 187
e 52 267
e 53 258
e 53 95
e 54 164
e 55 433
e 56 364
e 56 101
e 57 349
e 58 168
e 58 235
e 59 412
e 59 428
e 59 521
e 60 246
e 60 223
e 60 63
e 61 327
e 61 396
e 61 169
e 62 285
e 63 365
e 63 322
e 64 426
e 64 212
e 65 160
e 66 215
e 66 320
e 66 220
e 66 425
e 67 221
e 68 177
e 68 217
e 69 345
e 70 235
e 70 435
e 70 241
e 71 290
e 71 191
e 71 358
e 71 251
e 72 116
e 72 502
e 72 442
e 72 339
e 73 332
e 73 527
e 74 148
e 74 176
e 75 324
e 75 525
e 75 467
e 76 103
e 76 219
e 77 105
e 78 380
e 78 115
e 78 153
e 79 95
e 80 451
e 80 293
e 81 102
e 81 247
e 81 88
e 82 121
e 82 239
e 83 429
e 83 328
e 83 142
e 84 443
e 84 259
e 84 535
e 85 390
e 86 439
e 87 174
e 87 291
e 88 498
e 89 100
e 90 368
e 91 353
e 92 271
e 94 211
e 95 434
e 96 523
e 96 241
e 97 353
e 97 100
e 98 128
e 99 388
e 100 442
e 101 382
e 103 463
e 104 122
e 104 390
e 105 301
e 106 496
e 106 363
e 107 307
e 107 138
e 108 371
e 109 262
e 109 306
e 110 475
e 110 436
e 111 164
e 111 392
e 112 348
e 112 445
e 113 157
e 114 197
e 115 232
e 118 274
e 119 474
e 119 510
e 119 395
e 120 297
e 123 414
e 123 253
e 124 315
e 124 254
e 125 256
e 125 468
e 126 285
e 127 465
e 128 322
e 128 308
e 129 295
e 129 132
e 130 374
e 131 493
e 131 303
e 131 479
e 132 487
e 133 167
e 134 342
e 134 269
e 135 406
e 135 308
e 136 343
e 136 469
e 136 358
e 137 468
e 137 476
e 138 271
e 139 439
e 139 473
e 140 380
e 141 364
e 142 203
e 142 155
e 143 192
e 143 253
e 144 375
e 144 433
e 145 215
e 146 274
e 147 190
e 147 272
e 149 251
e 150 168
e 151 204
e 152 379
e 152 250
e 154 474
e 155 237
e 156 389
e 157 265
e 157 393
e 157 220
e 158 277
e 159 407
e 159 417
e 159 243
e 160 480
e 160 279
e 161 225
e 162 239
e 162 427
e 162 292
e 162 449
e 163 457
e 163 487
e 164 213
e 164 274
e 165 333
e 166 273
e 166 269
e 166 453
e 167 243
e 167 182
e 169 389
e 170 296
e 170 415
e 170 479
e 171 385
e 171 417
e 173 324
e 174 485
e 175 411
e 176 275
e 178 323
e 179 519
e 179 309
e 180 218
e 181 527
e 181 531
e 182 423
e 183 257
e 183 268
e 183 272
e 184 499
e 184 341
e 185 512
e 186 406
e 187 473
e 188 376
e 188 286
e 189 470
e 191 433
e 193 270
e 194 439
e 195 351
e 195 371
e 195 408
e 195 395
e 195 261
e 196 409
e 197 370
e 197 516
e 197 431
e 198 409
e 199 371
e 200 526
e 200 394
e 201 225
e 202 512
e 202 373
e 204 264
e 204 231
e 205 228
e 205 472
e 206 300
e 206 320
e 207 522
e 208 506
e 209 352
e 209 271
e 210 450
e 210 322
e 212 431
e 214 433
e 216 289
e 216 367
e 216 294
e 216 441
e 217 299
e 217 336
e 217 466
e 218 395
e 219 388
e 219 453
e 219 524
e 220 338
e 221 391
e 222 480
e 223 304
e 224 258
e 225 436
e 225 500
e 225 280
e 226 236
e 226 430
e 226 500
e 228 482
e 229 234
e 230 349
e 231 319
e 231 318
e 233 301
e 234 313
e 235 329
e 237 393
e 238 446
e 240 465
e 241 293
e 241 279
e 243 384
e 244 333
e 244 286
e 245 452
e 245 497
e 245 282
e 246 287
e 247 288
e 248 270
e 249 349
e 249 485
e 250 410
e 251 487
e 252 513
e 254 266
e 254 284
e 255 369
e 255 422
e 255 274
e 256 378
e 256 495
e 256 530
e 258 486
e 259 432
e 260 520
e 263 520
e 266 461
e 267 389
e 268 448
e 268 506
e 270 383
e 271 518
e 272 297
e 272 398
e 272 455
e 272 465
e 276 332
e 277 501
e 279 344
e 280 447
e 281 372
e 282 451
e 283 315
e 284 434
e 284 534
e 285 389
e 285 432
e 286 337
e 286 503
e 286 360
e 289 481
e 291 528
e 292 471
e 293 402
e 294 312
e 298 434
e 301 409
e 302 383
e 303 413
e 304 411
e 305 449
e 306 361
e 306 400
e 308 520
e 309 416
e 310 449
e 311 530
e 313 359
e 314 463
e 316 374
e 317 514
e 317 419
e 318 524
e 321 347
e 322 354
e 322 513
e 324 446
e 324 459
e 325 476
e 325 454
e 328 344
e 330 441
e 330 477
e 334 498
e 335 419
e 335 466
e 335 346
e 336 534
e 337 409
e 339 418
e 339 478
e 340 505
e 341 422
e 344 522
e 345 399
e 345 415
e 346 389
e 347 485
e 348 368
e 350 417
e 352 483
e 354 445
e 355 363
e 356 434
e 357 421
e 359 472
e 360 522
e 362 479
e 363 417
e 366 413
e 372 460
e 373 442
e 377 474
e 379 470
e 381 454
e 386 498
e 387 493
e 389 518
e 390 489
e 391 411
e 394 507
e 399 431
e 400 430
e 401 466
e 403 434
e 404 533
e 405 499
e 406 456
e 410 504
e 410 507
e 413 515
e 414 440
e 418 425
e 421 489
e 424 515
e 425 467
e 426 478
e 430 444
e 437 517
e 437 457
e 438 491
e 441 492
e 447 508
e 447 498
e 453 477
e 453 520
e 454 517
e 458 469
e 461 487
e 462 470
e 464 519
e 476 528
e 482 501
e 484 501
e 485 521
e 497 531
e 509 524
